clingo version 5.1.0
Reading from ASP/config.gringo ...
Solving...
Answer: 1
repair(regulator("t","a")) repair(regulator("d","a"))
Optimization: 2
Answer: 1
repair(regulator("t","a")) repair(regulator("d","a"))
Optimization: 2
Answer: 2
repair(regulator("t","b")) repair(regulator("d","a"))
Optimization: 2
Answer: 3
repair(regulator("d","t")) repair(regulator("d","a"))
Optimization: 2
OPTIMUM FOUND

Models       : 4
  Optimum    : yes
  Optimal    : 3
Optimization : 2
Calls        : 1
